chronos/benchmarks/adpcm_c/adpcm_c.ilp
enter Q
Maximize

30 dSta_0 + 16 d0_2.0 + 34 d0_2.1 + 4 d2_3.0 + 15 d2_3.1 + 1 d2_29.0 + 6 d2_29.1 + 6 d3_4.0 + 16 d3_4.1 + 1 d4_5.0 + 6 d4_5.1 + 1 d4_6.0 + 6 d4_6.1 + 1 d5_6.0 + 6 d5_6.1 + 1 d6_7.0 + 7 d6_7.1 + 4 d6_8.0 + 16 d6_8.1 + 4 d7_8.0 + 15 d7_8.1 + 3 d8_9.0 + 13 d8_9.1 + 3 d8_10.0 + 9 d8_10.1 + 3 d9_10.0 + 9 d9_10.1 + 3 d10_11.0 + 9 d10_11.1 + 3 d10_12.0 + 15 d10_12.1 + 3 d11_12.0 + 14 d11_12.1 + 2 d12_13.0 + 7 d12_13.1 + 1 d12_14.0 + 6 d12_14.1 + 1 d13_14.0 + 6 d13_14.1 + 2 d14_15.0 + 8 d14_15.1 + 1 d14_16.0 + 7 d14_16.1 + 2 d15_17.0 + 8 d15_17.1 + 2 d16_17.0 + 8 d16_17.1 + 2 d17_18.0 + 7 d17_18.1 + 2 d17_19.0 + 8 d17_19.1 + 7 d18_21.0 + 22 d18_21.1 + 1 d19_20.0 + 6 d19_20.1 + 7 d19_21.0 + 21 d19_21.1 + 7 d20_21.0 + 21 d20_21.1 + 1 d21_22.0 + 7 d21_22.1 + 2 d21_23.0 + 8 d21_23.1 + 2 d22_23.0 + 7 d22_23.1 + 1 d23_24.0 + 6 d23_24.1 + 5 d23_25.0 + 15 d23_25.1 + 5 d24_25.0 + 15 d24_25.1 + 3 d25_26.0 + 9 d25_26.1 + 5 d25_27.0 + 11 d25_27.1 + 3 d26_28.0 + 9 d26_28.1 + 3 d27_28.0 + 9 d27_28.1 + 1 d28_29.0 + 6 d28_29.1 + 6 d28_4.0 + 17 d28_4.1 + 1 d29_30.0 + 7 d29_30.1 + 8 d29_31.0 + 16 d29_31.1 + 9 d30_31.0 + 16 d30_31.1 + 4 d31_1.0 + 15 d31_1.1


Subject to

cm - 2 d31_1.1 - 4 d0_2.1 - 2 d2_3.1 - 2 d3_4.1 - 2 d28_4.1 - d4_5.1 - d4_6.1 - d5_6.1 - d6_7.1 - 2 d6_8.1 - 2 d7_8.1 - 2 d8_9.1 - d8_10.1 - d9_10.1 - d10_11.1 - 2 d10_12.1 - 2 d11_12.1 - d12_13.1 - d12_14.1 - d13_14.1 - d14_15.1 - d14_16.1 - d15_17.1 - d16_17.1 - d17_18.1 - d17_19.1 - d19_20.1 - 3 d18_21.1 - 3 d19_21.1 - 3 d20_21.1 - d21_22.1 - d21_23.1 - d22_23.1 - d23_24.1 - 2 d23_25.1 - 2 d24_25.1 - d25_26.1 - d25_27.1 - d26_28.1 - d27_28.1 - d2_29.1 - d28_29.1 - d29_30.1 - 2 d29_31.1 - 2 d30_31.1 = 3

\ === tcfg constraints ===
dSta_0 = 1
b0 - d0_2 = 0
b0 - dSta_0 = 0
b1 - d31_1 = 0
b2 - d2_3 - d2_29 = 0
b2 - d0_2 = 0
b3 - d3_4 = 0
b3 - d2_3 = 0
b4 - d4_5 - d4_6 = 0
b4 - d3_4 - d28_4 = 0
b5 - d5_6 = 0
b5 - d4_5 = 0
b6 - d6_7 - d6_8 = 0
b6 - d4_6 - d5_6 = 0
b7 - d7_8 = 0
b7 - d6_7 = 0
b8 - d8_9 - d8_10 = 0
b8 - d6_8 - d7_8 = 0
b9 - d9_10 = 0
b9 - d8_9 = 0
b10 - d10_11 - d10_12 = 0
b10 - d8_10 - d9_10 = 0
b11 - d11_12 = 0
b11 - d10_11 = 0
b12 - d12_13 - d12_14 = 0
b12 - d10_12 - d11_12 = 0
b13 - d13_14 = 0
b13 - d12_13 = 0
b14 - d14_15 - d14_16 = 0
b14 - d12_14 - d13_14 = 0
b15 - d15_17 = 0
b15 - d14_15 = 0
b16 - d16_17 = 0
b16 - d14_16 = 0
b17 - d17_18 - d17_19 = 0
b17 - d15_17 - d16_17 = 0
b18 - d18_21 = 0
b18 - d17_18 = 0
b19 - d19_20 - d19_21 = 0
b19 - d17_19 = 0
b20 - d20_21 = 0
b20 - d19_20 = 0
b21 - d21_22 - d21_23 = 0
b21 - d18_21 - d19_21 - d20_21 = 0
b22 - d22_23 = 0
b22 - d21_22 = 0
b23 - d23_24 - d23_25 = 0
b23 - d21_23 - d22_23 = 0
b24 - d24_25 = 0
b24 - d23_24 = 0
b25 - d25_26 - d25_27 = 0
b25 - d23_25 - d24_25 = 0
b26 - d26_28 = 0
b26 - d25_26 = 0
b27 - d27_28 = 0
b27 - d25_27 = 0
b28 - d28_29 - d28_4 = 0
b28 - d26_28 - d27_28 = 0
b29 - d29_30 - d29_31 = 0
b29 - d2_29 - d28_29 = 0
b30 - d30_31 = 0
b30 - d29_30 = 0
b31 - d31_1 = 0
b31 - d29_31 - d30_31 = 0


\ === cache_cons ===
b0.0 <= 1
b1 - b1.0 - b1.1 = 0
b2 - b2.0 - b2.1 = 0
b3 - b3.0 - b3.1 = 0
b4 - b4.0 - b4.1 = 0
b5 - b5.0 - b5.1 = 0
b6 - b6.0 - b6.1 = 0
b7 - b7.0 - b7.1 = 0
b8 - b8.0 - b8.1 = 0
b9 - b9.0 - b9.1 = 0
b10 - b10.0 - b10.1 = 0
b11 - b11.0 - b11.1 = 0
b12 - b12.0 - b12.1 = 0
b13 - b13.0 - b13.1 = 0
b14 - b14.0 - b14.1 = 0
b15 - b15.0 - b15.1 = 0
b16 - b16.0 - b16.1 = 0
b17 - b17.0 - b17.1 = 0
b18 - b18.0 - b18.1 = 0
b19 - b19.0 - b19.1 = 0
b20 - b20.0 - b20.1 = 0
b21 - b21.0 - b21.1 = 0
b22 - b22.0 - b22.1 = 0
b23 - b23.0 - b23.1 = 0
b24 - b24.0 - b24.1 = 0
b25 - b25.0 - b25.1 = 0
b26 - b26.0 - b26.1 = 0
b27 - b27.0 - b27.1 = 0
b28 - b28.0 - b28.1 = 0
b29 - b29.0 - b29.1 = 0
b30 - b30.0 - b30.1 = 0
b31 - b31.0 - b31.1 = 0

b0.0 <= 1
b1.0 - d31_1.0 = 0
b1.1 - d31_1.1 = 0
b2.0 - d0_2.0 = 0
b2.1 - d0_2.1 = 0
b3.0 - d2_3.0 = 0
b3.1 - d2_3.1 = 0
b4.0 - d3_4.0 - d28_4.0 = 0
b4.1 - d3_4.1 - d28_4.1 = 0
b5.0 - d4_5.0 = 0
b5.1 - d4_5.1 = 0
b6.0 - d4_6.0 - d5_6.0 = 0
b6.1 - d4_6.1 - d5_6.1 = 0
b7.0 - d6_7.0 = 0
b7.1 - d6_7.1 = 0
b8.0 - d6_8.0 - d7_8.0 = 0
b8.1 - d6_8.1 - d7_8.1 = 0
b9.0 - d8_9.0 = 0
b9.1 - d8_9.1 = 0
b10.0 - d8_10.0 - d9_10.0 = 0
b10.1 - d8_10.1 - d9_10.1 = 0
b11.0 - d10_11.0 = 0
b11.1 - d10_11.1 = 0
b12.0 - d10_12.0 - d11_12.0 = 0
b12.1 - d10_12.1 - d11_12.1 = 0
b13.0 - d12_13.0 = 0
b13.1 - d12_13.1 = 0
b14.0 - d12_14.0 - d13_14.0 = 0
b14.1 - d12_14.1 - d13_14.1 = 0
b15.0 - d14_15.0 = 0
b15.1 - d14_15.1 = 0
b16.0 - d14_16.0 = 0
b16.1 - d14_16.1 = 0
b17.0 - d15_17.0 - d16_17.0 = 0
b17.1 - d15_17.1 - d16_17.1 = 0
b18.0 - d17_18.0 = 0
b18.1 - d17_18.1 = 0
b19.0 - d17_19.0 = 0
b19.1 - d17_19.1 = 0
b20.0 - d19_20.0 = 0
b20.1 - d19_20.1 = 0
b21.0 - d18_21.0 - d19_21.0 - d20_21.0 = 0
b21.1 - d18_21.1 - d19_21.1 - d20_21.1 = 0
b22.0 - d21_22.0 = 0
b22.1 - d21_22.1 = 0
b23.0 - d21_23.0 - d22_23.0 = 0
b23.1 - d21_23.1 - d22_23.1 = 0
b24.0 - d23_24.0 = 0
b24.1 - d23_24.1 = 0
b25.0 - d23_25.0 - d24_25.0 = 0
b25.1 - d23_25.1 - d24_25.1 = 0
b26.0 - d25_26.0 = 0
b26.1 - d25_26.1 = 0
b27.0 - d25_27.0 = 0
b27.1 - d25_27.1 = 0
b28.0 - d26_28.0 - d27_28.0 = 0
b28.1 - d26_28.1 - d27_28.1 = 0
b29.0 - d2_29.0 - d28_29.0 = 0
b29.1 - d2_29.1 - d28_29.1 = 0
b30.0 - d29_30.0 = 0
b30.1 - d29_30.1 = 0
b31.0 - d29_31.0 - d30_31.0 = 0
b31.1 - d29_31.1 - d30_31.1 = 0

b0.1 <= 1
b1.1 <= 1
b2.1 <= 1
b3.1 <= 1
b4.1 <= 1
b5.1 <= 1
b6.1 <= 1
b7.1 <= 1
b8.1 <= 1
b9.1 <= 1
b10.1 <= 1
b11.1 <= 1
b12.1 <= 1
b13.1 <= 1
b14.1 <= 1
b15.1 <= 1
b16.1 <= 1
b17.1 <= 1
b18.1 <= 1
b19.1 <= 1
b20.1 <= 1
b21.1 <= 1
b22.1 <= 1
b23.1 <= 1
b24.1 <= 1
b25.1 <= 1
b26.1 <= 1
b27.1 <= 1
b28.1 <= 1
b29.1 <= 1
b30.1 <= 1
b31.1 <= 1

d28_4.1 = 0

\ === tcfg_estunit_cons ===
d0_2 - d0_2.0 - d0_2.1 = 0
d2_3 - d2_3.0 - d2_3.1 = 0
d2_29 - d2_29.0 - d2_29.1 = 0
d3_4 - d3_4.0 - d3_4.1 = 0
d4_5 - d4_5.0 - d4_5.1 = 0
d4_6 - d4_6.0 - d4_6.1 = 0
d5_6 - d5_6.0 - d5_6.1 = 0
d6_7 - d6_7.0 - d6_7.1 = 0
d6_8 - d6_8.0 - d6_8.1 = 0
d7_8 - d7_8.0 - d7_8.1 = 0
d8_9 - d8_9.0 - d8_9.1 = 0
d8_10 - d8_10.0 - d8_10.1 = 0
d9_10 - d9_10.0 - d9_10.1 = 0
d10_11 - d10_11.0 - d10_11.1 = 0
d10_12 - d10_12.0 - d10_12.1 = 0
d11_12 - d11_12.0 - d11_12.1 = 0
d12_13 - d12_13.0 - d12_13.1 = 0
d12_14 - d12_14.0 - d12_14.1 = 0
d13_14 - d13_14.0 - d13_14.1 = 0
d14_15 - d14_15.0 - d14_15.1 = 0
d14_16 - d14_16.0 - d14_16.1 = 0
d15_17 - d15_17.0 - d15_17.1 = 0
d16_17 - d16_17.0 - d16_17.1 = 0
d17_18 - d17_18.0 - d17_18.1 = 0
d17_19 - d17_19.0 - d17_19.1 = 0
d18_21 - d18_21.0 - d18_21.1 = 0
d19_20 - d19_20.0 - d19_20.1 = 0
d19_21 - d19_21.0 - d19_21.1 = 0
d20_21 - d20_21.0 - d20_21.1 = 0
d21_22 - d21_22.0 - d21_22.1 = 0
d21_23 - d21_23.0 - d21_23.1 = 0
d22_23 - d22_23.0 - d22_23.1 = 0
d23_24 - d23_24.0 - d23_24.1 = 0
d23_25 - d23_25.0 - d23_25.1 = 0
d24_25 - d24_25.0 - d24_25.1 = 0
d25_26 - d25_26.0 - d25_26.1 = 0
d25_27 - d25_27.0 - d25_27.1 = 0
d26_28 - d26_28.0 - d26_28.1 = 0
d27_28 - d27_28.0 - d27_28.1 = 0
d28_29 - d28_29.0 - d28_29.1 = 0
d28_4 - d28_4.0 - d28_4.1 = 0
d29_30 - d29_30.0 - d29_30.1 = 0
d29_31 - d29_31.0 - d29_31.1 = 0
d30_31 - d30_31.0 - d30_31.1 = 0
d31_1 - d31_1.0 - d31_1.1 = 0
b2 = 1
b3 = 1
b4 = 1000
b6 = 1000
b7 = 0
b8 = 1000
b10 = 1000
b12 = 1000
b14 = 1000
b15 = 0
b16 = 1000
b17 = 1000
b21 = 1000
b23 = 1000
b25 = 1000
b26 = 500
b27 = 500
b28 = 1000
b29 = 1
b30 = 0
b31 = 1
b0 = 1
b1 = 1

Generals

cm
Sta
b0
d0_2
b1
b2
d2_3
d2_29
b3
d3_4
b4
d4_5
d4_6
b5
d5_6
b6
d6_7
d6_8
b7
d7_8
b8
d8_9
d8_10
b9
d9_10
b10
d10_11
d10_12
b11
d11_12
b12
d12_13
d12_14
b13
d13_14
b14
d14_15
d14_16
b15
d15_17
b16
d16_17
b17
d17_18
d17_19
b18
d18_21
b19
d19_20
d19_21
b20
d20_21
b21
d21_22
d21_23
b22
d22_23
b23
d23_24
d23_25
b24
d24_25
b25
d25_26
d25_27
b26
d26_28
b27
d27_28
b28
d28_29
d28_4
b29
d29_30
d29_31
b30
d30_31
b31
d31_1
b0.0
b1.0
b1.1
b2.0
b2.1
b3.0
b3.1
b4.0
b4.1
b5.0
b5.1
b6.0
b6.1
b7.0
b7.1
b8.0
b8.1
b9.0
b9.1
b10.0
b10.1
b11.0
b11.1
b12.0
b12.1
b13.0
b13.1
b14.0
b14.1
b15.0
b15.1
b16.0
b16.1
b17.0
b17.1
b18.0
b18.1
b19.0
b19.1
b20.0
b20.1
b21.0
b21.1
b22.0
b22.1
b23.0
b23.1
b24.0
b24.1
b25.0
b25.1
b26.0
b26.1
b27.0
b27.1
b28.0
b28.1
b29.0
b29.1
b30.0
b30.1
b31.0
b31.1
b0.0
b1.0
b1.1
b2.0
b2.1
b3.0
b3.1
b4.0
b4.1
b5.0
b5.1
b6.0
b6.1
b7.0
b7.1
b8.0
b8.1
b9.0
b9.1
b10.0
b10.1
b11.0
b11.1
b12.0
b12.1
b13.0
b13.1
b14.0
b14.1
b15.0
b15.1
b16.0
b16.1
b17.0
b17.1
b18.0
b18.1
b19.0
b19.1
b20.0
b20.1
b21.0
b21.1
b22.0
b22.1
b23.0
b23.1
b24.0
b24.1
b25.0
b25.1
b26.0
b26.1
b27.0
b27.1
b28.0
b28.1
b29.0
b29.1
b30.0
b30.1
b31.0
b31.1

End
\ total_cons: 260 	total_vars: 205
optimize
set logfile /ubc/ece/home/courses/eece494/chronos/benchmarks/adpcm_c/adpcm_c.sol
display solution objective
display solution variables -
quit
