chronos/benchmarks/adpcm_c/adpcm_c.out
sim-profile: SimpleScalar/PISA Tool Set version 3.0 of August, 2003.
Copyright (c) 1994-2003 by Todd M. Austin, Ph.D. and SimpleScalar, LLC.
All Rights Reserved. This version of SimpleScalar is licensed for academic
non-commercial use.  No portion of this work may be used by any commercial
entity, or for any commercial purpose, without the prior written permission
of SimpleScalar, LLC (info@simplescalar.com).

sim: command line: /ubc/ece/home/ugrads/s/s2z6/chronos/simplesim-3.0/sim-profile -pcstat sim_num_insn adpcm_c 

sim: simulation started @ Thu Jan 27 14:05:39 2011, options follow:

sim-profile: This simulator implements a functional simulator with
profiling support.  Run with the `-h' flag to see profiling options
available.

# -config                     # load configuration from a file
# -dumpconfig                 # dump configuration to a file
# -h                    false # print help message    
# -v                    false # verbose operation     
# -d                    false # enable debug message  
# -i                    false # start in Dlite debugger
-seed                       1 # random number generator seed (0 for timer seed)
# -q                    false # initialize and terminate immediately
# -chkpt               <null> # restore EIO trace execution from <fname>
# -redir:sim           <null> # redirect simulator output to file (non-interactive only)
# -redir:prog          <null> # redirect simulated program output to file
-nice                       0 # simulator scheduling priority
-max:inst                   0 # maximum number of inst's to execute
-all                    false # enable all profile options
-iclass                 false # enable instruction class profiling
-iprof                  false # enable instruction profiling
-brprof                 false # enable branch instruction profiling
-amprof                 false # enable address mode profiling
-segprof                false # enable load/store address segment profiling
-tsymprof               false # enable text symbol profiling
-taddrprof              false # enable text address profiling
-dsymprof               false # enable data symbol profiling
-internal               false # include compiler-internal symbols during symbol profiling
# -pcstat        sim_num_insn # profile stat(s) against text addr's (mult uses ok)

sim: ** starting functional simulation **

sim: ** simulation statistics **
sim_num_insn                  47567 # total number of instructions executed
sim_num_refs                   7134 # total number of loads and stores executed
sim_elapsed_time                  1 # total simulation time in seconds
sim_inst_rate            47567.0000 # simulation speed (in insts/sec)

sim_num_insn_by_pc     # total number of instructions executed (by text address)
sim_num_insn_by_pc.count = 903
sim_num_insn_by_pc.total = 47566
sim_num_insn_by_pc.imin = 0x400140
sim_num_insn_by_pc.imax = 0x4058b0
sim_num_insn_by_pc.average =  52.6755
sim_num_insn_by_pc.std_dev = 208.1305
sim_num_insn_by_pc.overflows = 0
# pdf == prob dist fn, cdf == cumulative dist fn
#          index      count    pdf 
sim_num_insn_by_pc.start_dist
0x400140 1 0.00
0x400148 1 0.00
0x400150 1 0.00
0x400158 1 0.00
0x400160 1 0.00
0x400168 1 0.00
0x400170 1 0.00
0x400178 1 0.00
0x400180 1 0.00
0x400188 1 0.00
0x400190 1 0.00
0x400198 1 0.00
0x4001a0 1 0.00
0x4001a8 1 0.00
0x4001b0 1 0.00
0x4001b8 1 0.00
0x4001c0 1 0.00
0x4001c8 1 0.00
0x4001d0 1 0.00
0x4001d8 1 0.00
0x4001e0 1 0.00
0x4001f0 1 0.00
0x4001f8 1 0.00
0x400200 1 0.00
0x400208 1 0.00
0x400210 1 0.00
0x400218 1 0.00
0x400220 1 0.00
0x400228 1 0.00
0x400230 1 0.00
0x400238 1 0.00
0x400240 1 0.00
0x400248 1 0.00
0x400250 1 0.00
0x400258 1 0.00
0x400260 1 0.00
0x400268 1 0.00
0x400270 1000 2.10
0x400278 1000 2.10
0x400280 1000 2.10
0x400288 1000 2.10
0x400290 1000 2.10
0x4002a0 1000 2.10
0x4002b0 1000 2.10
0x4002b8 1000 2.10
0x4002c0 1000 2.10
0x4002c8 1000 2.10
0x4002e8 1000 2.10
0x4002f0 1000 2.10
0x4002f8 1000 2.10
0x400318 1000 2.10
0x400320 1000 2.10
0x400328 1000 2.10
0x400340 1000 2.10
0x400358 1000 2.10
0x400360 1000 2.10
0x400368 1000 2.10
0x400380 1000 2.10
0x400388 1000 2.10
0x400398 1000 2.10
0x4003a0 1000 2.10
0x4003a8 1000 2.10
0x4003b0 1000 2.10
0x4003b8 1000 2.10
0x4003c0 1000 2.10
0x4003c8 1000 2.10
0x4003d0 1000 2.10
0x4003d8 1000 2.10
0x4003e8 1000 2.10
0x4003f0 1000 2.10
0x4003f8 1000 2.10
0x400400 1000 2.10
0x400408 500 1.05
0x400410 500 1.05
0x400418 500 1.05
0x400420 500 1.05
0x400428 500 1.05
0x400430 500 1.05
0x400438 500 1.05
0x400440 1000 2.10
0x400448 1000 2.10
0x400450 1000 2.10
0x400458 1 0.00
0x400468 1 0.00
0x400470 1 0.00
0x400478 1 0.00
0x400480 1 0.00
0x400488 1 0.00
0x400490 1 0.00
0x400498 1 0.00
0x4004a0 1 0.00
0x4004a8 1 0.00
0x4004b0 1 0.00
0x4004b8 1 0.00
0x4004c0 1 0.00
0x4004c8 1 0.00
0x4004d0 1 0.00
0x4004d8 1 0.00
0x4004e0 1 0.00
0x4004e8 1 0.00
0x4004f0 1 0.00
0x4004f8 1 0.00
0x400500 1 0.00
0x400508 1 0.00
0x400510 1 0.00
0x400518 1 0.00
0x400520 1 0.00
0x400528 1 0.00
0x400530 1 0.00
0x400538 1 0.00
0x400540 1 0.00
0x400548 1 0.00
0x400550 1 0.00
0x400558 1 0.00
0x400560 1 0.00
0x400568 1 0.00
0x400570 1 0.00
0x400578 1 0.00
0x400580 1 0.00
0x400588 1 0.00
0x400590 1 0.00
0x400598 1 0.00
0x4005a0 1 0.00
0x400650 1 0.00
0x400658 1 0.00
0x400660 1 0.00
0x400668 1 0.00
0x400670 1 0.00
0x4006c0 1 0.00
0x4006c8 1 0.00
0x4006d0 1 0.00
0x4006d8 1 0.00
0x4006e0 1 0.00
0x4006e8 1 0.00
0x4006f0 1 0.00
0x4006f8 1 0.00
0x400700 1 0.00
0x400708 1 0.00
0x400710 1 0.00
0x400718 1 0.00
0x400728 1 0.00
0x400730 1 0.00
0x400738 1 0.00
0x400740 1 0.00
0x400748 1 0.00
0x400960 1 0.00
0x400968 1 0.00
0x400970 1 0.00
0x400978 1 0.00
0x400980 1 0.00
0x400988 1 0.00
0x400990 1 0.00
0x4009b0 1 0.00
0x4009d0 1 0.00
0x4009d8 1 0.00
0x4009e0 1 0.00
0x4009e8 1 0.00
0x4009f0 1 0.00
0x4009f8 1 0.00
0x400a18 1 0.00
0x400a20 1 0.00
0x400a28 1 0.00
0x400a30 1 0.00
0x400a50 1 0.00
0x400a58 1 0.00
0x400a60 1 0.00
0x400a68 1 0.00
0x400a70 1 0.00
0x400a78 1 0.00
0x400a80 1 0.00
0x400a88 1 0.00
0x400a90 1 0.00
0x400a98 1 0.00
0x400aa0 1 0.00
0x400aa8 1 0.00
0x400ab0 1 0.00
0x400ab8 1 0.00
0x400ac0 1 0.00
0x400ac8 1 0.00
0x400ad0 1 0.00
0x400ad8 1 0.00
0x400ae0 1 0.00
0x400ae8 1 0.00
0x400af0 1 0.00
0x400af8 1 0.00
0x400b00 1 0.00
0x400b08 1 0.00
0x400b18 1 0.00
0x400b20 1 0.00
0x400b28 1 0.00
0x400b30 1 0.00
0x400b38 1 0.00
0x400b40 1 0.00
0x400b48 1 0.00
0x400b50 1 0.00
0x400b58 1 0.00
0x400b60 1 0.00
0x400b68 1 0.00
0x400b70 1 0.00
0x400b78 1 0.00
0x400b80 1 0.00
0x400b88 1 0.00
0x400b90 1 0.00
0x400b98 1 0.00
0x400ba0 1 0.00
0x400ba8 1 0.00
0x400bb0 1 0.00
0x400bb8 1 0.00
0x400bc0 1 0.00
0x400bc8 1 0.00
0x400bd0 1 0.00
0x400bd8 1 0.00
0x400be8 1 0.00
0x400bf0 1 0.00
0x400bf8 1 0.00
0x400c00 1 0.00
0x400c08 1 0.00
0x400c10 1 0.00
0x400c18 1 0.00
0x400c20 1 0.00
0x400c28 1 0.00
0x400c30 1 0.00
0x400c38 1 0.00
0x400c40 1 0.00
0x400c48 1 0.00
0x400c50 1 0.00
0x400c58 1 0.00
0x400c60 1 0.00
0x400c68 1 0.00
0x400c98 1 0.00
0x400ca0 1 0.00
0x400cb0 1 0.00
0x400cb8 1 0.00
0x400cd0 1 0.00
0x400cd8 1 0.00
0x400ce0 1 0.00
0x400ce8 1 0.00
0x400cf8 1 0.00
0x400d00 1 0.00
0x400d08 1 0.00
0x400d10 1 0.00
0x400d18 1 0.00
0x400fa0 1 0.00
0x400fa8 1 0.00
0x400fb0 1 0.00
0x400fb8 1 0.00
0x400fc8 1 0.00
0x400fd0 1 0.00
0x400fd8 1 0.00
0x400fe0 1 0.00
0x400fe8 1 0.00
0x400ff0 1 0.00
0x400ff8 1 0.00
0x401000 1 0.00
0x401008 1 0.00
0x401010 1 0.00
0x401018 1 0.00
0x401020 1 0.00
0x401028 1 0.00
0x401030 1 0.00
0x401038 1 0.00
0x401040 1 0.00
0x401048 1 0.00
0x401050 1 0.00
0x401058 1 0.00
0x401060 1 0.00
0x401068 1 0.00
0x401070 1 0.00
0x401088 1 0.00
0x401090 1 0.00
0x401098 1 0.00
0x4010a0 1 0.00
0x4010a8 1 0.00
0x4010b0 1 0.00
0x4010c0 1 0.00
0x4010c8 1 0.00
0x401460 1 0.00
0x401468 1 0.00
0x401470 1 0.00
0x401478 1 0.00
0x401480 1 0.00
0x401488 1 0.00
0x401490 1 0.00
0x401498 1 0.00
0x4014a0 1 0.00
0x4014a8 1 0.00
0x4014b0 1 0.00
0x4014b8 1 0.00
0x4014c0 1 0.00
0x4014c8 1 0.00
0x4014d0 1 0.00
0x4014d8 1 0.00
0x4014e0 1 0.00
0x4014e8 1 0.00
0x4014f0 1 0.00
0x4014f8 1 0.00
0x401500 1 0.00
0x401508 1 0.00
0x401510 1 0.00
0x401518 1 0.00
0x401520 1 0.00
0x401528 1 0.00
0x401610 1 0.00
0x401618 1 0.00
0x401620 1 0.00
0x401628 1 0.00
0x401630 1 0.00
0x401638 1 0.00
0x401640 1 0.00
0x401650 1 0.00
0x401658 1 0.00
0x401660 1 0.00
0x401668 1 0.00
0x401670 1 0.00
0x401678 1 0.00
0x401680 1 0.00
0x401688 1 0.00
0x401690 1 0.00
0x401698 1 0.00
0x4016a0 1 0.00
0x4016a8 1 0.00
0x4016b0 1 0.00
0x4016b8 1 0.00
0x4016c0 1 0.00
0x4016c8 1 0.00
0x4016d0 1 0.00
0x401968 1 0.00
0x401970 1 0.00
0x401978 1 0.00
0x401980 1 0.00
0x401988 1 0.00
0x401990 1 0.00
0x401998 1 0.00
0x4019a0 1 0.00
0x4019b0 4 0.01
0x4019b8 4 0.01
0x4019c0 4 0.01
0x4019c8 4 0.01
0x4019d0 4 0.01
0x4019d8 4 0.01
0x4019e0 4 0.01
0x4019e8 1 0.00
0x4019f0 1 0.00
0x4019f8 1 0.00
0x401a00 1 0.00
0x401a08 1 0.00
0x401a10 1 0.00
0x401a18 3 0.01
0x401a20 3 0.01
0x401a38 3 0.01
0x401a40 3 0.01
0x401a48 3 0.01
0x401a50 3 0.01
0x401a58 3 0.01
0x401a60 3 0.01
0x401a68 1 0.00
0x401a70 1 0.00
0x401a78 3 0.01
0x401a80 3 0.01
0x401a88 3 0.01
0x401a90 3 0.01
0x401aa8 3 0.01
0x401ab0 3 0.01
0x401ab8 3 0.01
0x401ac0 3 0.01
0x401ae8 3 0.01
0x401af0 3 0.01
0x401af8 3 0.01
0x401b00 2 0.00
0x401b08 2 0.00
0x401b10 2 0.00
0x401b18 2 0.00
0x401b20 2 0.00
0x401b38 3 0.01
0x401b40 3 0.01
0x401b48 1 0.00
0x401b50 1 0.00
0x401b58 1 0.00
0x401b60 1 0.00
0x401b68 3 0.01
0x401b70 3 0.01
0x401b78 2 0.00
0x401b80 2 0.00
0x401b88 2 0.00
0x401b90 2 0.00
0x401b98 1 0.00
0x401ba0 1 0.00
0x401ba8 1 0.00
0x401bb0 1 0.00
0x401bb8 1 0.00
0x401bd8 1 0.00
0x401be0 3 0.01
0x401be8 3 0.01
0x401bf0 3 0.01
0x401bf8 4 0.01
0x401c00 4 0.01
0x401c08 4 0.01
0x401c10 4 0.01
0x401c18 4 0.01
0x401c20 4 0.01
0x401c30 1 0.00
0x401c38 1 0.00
0x401c40 1 0.00
0x401c48 1 0.00
0x401c50 1 0.00
0x401c58 1 0.00
0x401c60 1 0.00
0x401c68 1 0.00
0x401ca0 1 0.00
0x401ca8 1 0.00
0x401cb0 1 0.00
0x401cb8 1 0.00
0x401cc0 1 0.00
0x401cc8 1 0.00
0x401cd0 2 0.00
0x401cd8 2 0.00
0x401ce0 2 0.00
0x401ce8 2 0.00
0x401cf0 2 0.00
0x401cf8 2 0.00
0x401d00 2 0.00
0x401d08 2 0.00
0x401d10 1 0.00
0x401d18 1 0.00
0x401d20 1 0.00
0x401d28 1 0.00
0x401d30 1 0.00
0x401d38 1 0.00
0x401d40 1 0.00
0x401d48 1 0.00
0x401d50 1 0.00
0x401d58 1 0.00
0x401d60 1 0.00
0x401d68 1 0.00
0x401d70 1 0.00
0x401d78 1 0.00
0x401d80 1 0.00
0x401d88 1 0.00
0x401d90 1 0.00
0x401d98 1 0.00
0x401da0 1 0.00
0x401da8 1 0.00
0x401db0 1 0.00
0x401db8 1 0.00
0x401dc0 1 0.00
0x401dd8 1 0.00
0x401de0 1 0.00
0x401de8 1 0.00
0x401df0 5 0.01
0x401df8 5 0.01
0x401e00 5 0.01
0x401e08 5 0.01
0x401e10 5 0.01
0x401e18 5 0.01
0x401e20 5 0.01
0x401e28 5 0.01
0x401e30 5 0.01
0x401e38 5 0.01
0x401e40 4 0.01
0x401e48 4 0.01
0x401e50 4 0.01
0x401e58 4 0.01
0x401e60 4 0.01
0x401e68 4 0.01
0x401e70 4 0.01
0x401e78 4 0.01
0x401e80 4 0.01
0x401e88 4 0.01
0x401eb8 4 0.01
0x401ec0 4 0.01
0x401ec8 4 0.01
0x401ed0 390 0.82
0x401ed8 390 0.82
0x401ee0 390 0.82
0x401ee8 390 0.82
0x401ef0 390 0.82
0x401ef8 390 0.82
0x401f00 390 0.82
0x401f08 390 0.82
0x401f10 390 0.82
0x401f18 390 0.82
0x401f20 390 0.82
0x401f28 390 0.82
0x401f30 4 0.01
0x401f38 4 0.01
0x401f40 4 0.01
0x401f48 12 0.03
0x401f50 12 0.03
0x401f58 12 0.03
0x401f60 12 0.03
0x401f68 4 0.01
0x401f70 4 0.01
0x401f98 4 0.01
0x401fa0 4 0.01
0x402170 1 0.00
0x402178 1 0.00
0x402180 1 0.00
0x402188 1 0.00
0x402190 1 0.00
0x402198 1 0.00
0x4021a0 1 0.00
0x4021a8 1 0.00
0x4021b0 1 0.00
0x4021b8 1 0.00
0x4021c8 1 0.00
0x4021d0 1 0.00
0x4021d8 1 0.00
0x4021e0 1 0.00
0x4021e8 1 0.00
0x4021f0 1 0.00
0x4021f8 1 0.00
0x402200 1 0.00
0x402208 1 0.00
0x402210 1 0.00
0x402218 1 0.00
0x402220 1 0.00
0x402228 1 0.00
0x402230 1 0.00
0x402238 1 0.00
0x402240 1 0.00
0x402248 1 0.00
0x402250 1 0.00
0x402258 1 0.00
0x402260 1 0.00
0x402268 1 0.00
0x402270 1 0.00
0x402278 1 0.00
0x402280 1 0.00
0x402288 1 0.00
0x4022d8 1 0.00
0x4022e0 1 0.00
0x4022e8 1 0.00
0x4022f0 1 0.00
0x4022f8 1 0.00
0x402300 1 0.00
0x402308 1 0.00
0x402320 1 0.00
0x402328 1 0.00
0x402330 1 0.00
0x402338 1 0.00
0x402340 1 0.00
0x402348 1 0.00
0x402350 1 0.00
0x402358 1 0.00
0x402360 1 0.00
0x402368 1 0.00
0x402370 1 0.00
0x402378 1 0.00
0x402380 1 0.00
0x4023d0 1 0.00
0x4023d8 1 0.00
0x4023e0 1 0.00
0x4023e8 1 0.00
0x4023f0 1 0.00
0x4023f8 1 0.00
0x402400 1 0.00
0x402408 1 0.00
0x402410 1 0.00
0x402418 1 0.00
0x402420 1 0.00
0x402428 1 0.00
0x402430 1 0.00
0x402438 1 0.00
0x402440 1 0.00
0x402448 1 0.00
0x402450 1 0.00
0x402458 1 0.00
0x402460 1 0.00
0x402468 1 0.00
0x402470 1 0.00
0x402478 1 0.00
0x402480 1 0.00
0x402488 1 0.00
0x402490 1 0.00
0x402498 1 0.00
0x4024a0 1 0.00
0x4024a8 1 0.00
0x402560 1 0.00
0x402568 1 0.00
0x402570 1 0.00
0x402578 1 0.00
0x402580 1 0.00
0x402588 1 0.00
0x402590 1 0.00
0x402598 1 0.00
0x4025a0 1 0.00
0x4025a8 1 0.00
0x4025b0 1 0.00
0x4025b8 1 0.00
0x4025c0 1 0.00
0x4025c8 1 0.00
0x4025d0 1 0.00
0x4025d8 1 0.00
0x4025e0 1 0.00
0x4025e8 1 0.00
0x4025f0 1 0.00
0x4025f8 1 0.00
0x402600 1 0.00
0x402608 1 0.00
0x402610 1 0.00
0x402618 1 0.00
0x402620 1 0.00
0x402628 1 0.00
0x402630 1 0.00
0x402638 1 0.00
0x402640 1 0.00
0x402648 1 0.00
0x402650 1 0.00
0x402658 1 0.00
0x402660 1 0.00
0x402668 1 0.00
0x402670 1 0.00
0x402678 1 0.00
0x402680 1 0.00
0x402688 1 0.00
0x402690 1 0.00
0x402698 1 0.00
0x4026a0 1 0.00
0x4026a8 1 0.00
0x4026b0 1 0.00
0x4026b8 1 0.00
0x4026c0 1 0.00
0x4026c8 1 0.00
0x4026d0 1 0.00
0x4026d8 1 0.00
0x4029e8 1 0.00
0x4029f0 1 0.00
0x4029f8 1 0.00
0x402a00 1 0.00
0x402a08 1 0.00
0x402a10 1 0.00
0x402a18 1 0.00
0x402a20 1 0.00
0x402a28 1 0.00
0x402a30 1 0.00
0x402a38 1 0.00
0x402a40 1 0.00
0x402a68 1 0.00
0x402a70 1 0.00
0x402aa0 1 0.00
0x402aa8 1 0.00
0x402ab0 1 0.00
0x402ab8 1 0.00
0x402ee8 2 0.00
0x402ef0 2 0.00
0x402ef8 2 0.00
0x402f00 2 0.00
0x402f08 2 0.00
0x402f10 2 0.00
0x402f18 2 0.00
0x402f20 2 0.00
0x402f28 2 0.00
0x402f30 2 0.00
0x402f38 2 0.00
0x402f40 2 0.00
0x402f48 2 0.00
0x402f50 2 0.00
0x402f58 2 0.00
0x402f60 2 0.00
0x402f68 2 0.00
0x402f70 2 0.00
0x402f78 2 0.00
0x402f80 2 0.00
0x402f88 2 0.00
0x402f90 2 0.00
0x402f98 2 0.00
0x402fa0 2 0.00
0x402fa8 2 0.00
0x402fb0 2 0.00
0x402fb8 2 0.00
0x402fc0 2 0.00
0x403178 2 0.00
0x403180 2 0.00
0x403188 1 0.00
0x403190 1 0.00
0x403198 1 0.00
0x4031a0 1 0.00
0x4031a8 1 0.00
0x4031b0 1 0.00
0x4031b8 1 0.00
0x403220 2 0.00
0x403228 2 0.00
0x403230 2 0.00
0x403238 2 0.00
0x403270 2 0.00
0x403278 2 0.00
0x403280 2 0.00
0x403288 2 0.00
0x403290 2 0.00
0x403298 2 0.00
0x4032a0 2 0.00
0x4032a8 2 0.00
0x4032b0 2 0.00
0x4032b8 2 0.00
0x4032c0 2 0.00
0x4035c0 2 0.00
0x4035c8 2 0.00
0x4035d0 2 0.00
0x4035d8 2 0.00
0x4035e0 2 0.00
0x4035e8 2 0.00
0x4035f0 2 0.00
0x4035f8 2 0.00
0x403600 2 0.00
0x403618 2 0.00
0x403620 2 0.00
0x403628 2 0.00
0x403630 2 0.00
0x403638 2 0.00
0x403640 2 0.00
0x403648 2 0.00
0x403650 2 0.00
0x403658 2 0.00
0x403660 2 0.00
0x403668 2 0.00
0x403b00 2 0.00
0x403b08 2 0.00
0x403b10 2 0.00
0x403b18 2 0.00
0x403b20 2 0.00
0x403b28 2 0.00
0x403b30 2 0.00
0x403b38 2 0.00
0x403b40 2 0.00
0x403b48 2 0.00
0x403b50 2 0.00
0x403b58 2 0.00
0x403b60 2 0.00
0x403b68 2 0.00
0x403b70 2 0.00
0x403b88 2 0.00
0x403b90 2 0.00
0x403b98 2 0.00
0x403ba0 2 0.00
0x403ba8 2 0.00
0x403bb0 2 0.00
0x403bb8 2 0.00
0x403be0 2 0.00
0x403be8 2 0.00
0x403bf0 2 0.00
0x403bf8 2 0.00
0x403c00 2 0.00
0x403c38 2 0.00
0x403c40 2 0.00
0x403c48 2 0.00
0x403c50 2 0.00
0x403c58 2 0.00
0x403c60 2 0.00
0x403c68 2 0.00
0x403c70 2 0.00
0x403c78 2 0.00
0x403c80 2 0.00
0x403c88 2 0.00
0x403c90 2 0.00
0x403c98 2 0.00
0x403ca0 2 0.00
0x403ca8 2 0.00
0x403cb0 2 0.00
0x403cb8 2 0.00
0x403cc0 2 0.00
0x403cc8 2 0.00
0x403cd0 2 0.00
0x403cd8 2 0.00
0x403ce0 2 0.00
0x403ce8 2 0.00
0x403cf0 2 0.00
0x403cf8 2 0.00
0x403d00 2 0.00
0x403d08 2 0.00
0x403d10 2 0.00
0x403d18 2 0.00
0x403d20 2 0.00
0x403d28 1 0.00
0x403d30 1 0.00
0x403d48 1 0.00
0x403d50 1 0.00
0x403d58 1 0.00
0x403d60 1 0.00
0x403d68 1 0.00
0x403d70 1 0.00
0x403d78 1 0.00
0x403db0 1 0.00
0x403db8 1 0.00
0x403dc0 1 0.00
0x403de8 2 0.00
0x403df0 2 0.00
0x403df8 2 0.00
0x403e00 2 0.00
0x403e08 2 0.00
0x403e10 2 0.00
0x403e18 2 0.00
0x403e20 2 0.00
0x403e28 2 0.00
0x403e58 2 0.00
0x403f20 2 0.00
0x403f28 2 0.00
0x403f30 2 0.00
0x403f58 2 0.00
0x403f60 2 0.00
0x403f70 2 0.00
0x403f78 2 0.00
0x403f80 2 0.00
0x403f88 2 0.00
0x403f90 2 0.00
0x403f98 2 0.00
0x403fc8 2 0.00
0x403fd0 2 0.00
0x403fd8 2 0.00
0x403fe0 2 0.00
0x403ff8 2 0.00
0x404000 2 0.00
0x404008 2 0.00
0x404010 2 0.00
0x404018 2 0.00
0x404020 2 0.00
0x404028 2 0.00
0x404030 2 0.00
0x4045c8 3 0.01
0x4045d0 3 0.01
0x4045d8 3 0.01
0x4045e0 3 0.01
0x4045e8 3 0.01
0x4045f0 3 0.01
0x4045f8 3 0.01
0x404600 3 0.01
0x404608 3 0.01
0x404610 3 0.01
0x404618 3 0.01
0x404620 3 0.01
0x404628 3 0.01
0x404630 3 0.01
0x404638 3 0.01
0x4047e0 2 0.00
0x4047e8 2 0.00
0x4047f0 2 0.00
0x4047f8 2 0.00
0x404800 2 0.00
0x404808 2 0.00
0x404c80 5 0.01
0x404c88 5 0.01
0x404c90 5 0.01
0x404c98 5 0.01
0x404ca0 1 0.00
0x404ca8 1 0.00
0x404cb0 4 0.01
0x404cb8 4 0.01
0x404cc0 4 0.01
0x404cc8 4 0.01
0x404cd0 4 0.01
0x404cd8 4 0.01
0x404ce0 3 0.01
0x404ce8 5 0.01
0x404cf0 5 0.01
0x404cf8 5 0.01
0x404d00 5 0.01
0x405560 2 0.00
0x405568 2 0.00
0x405570 2 0.00
0x405578 2 0.00
0x405580 2 0.00
0x405588 2 0.00
0x405590 2 0.00
0x405598 2 0.00
0x4055a0 2 0.00
0x4055a8 2 0.00
0x4055b0 2 0.00
0x4055b8 1 0.00
0x4055c0 1 0.00
0x4055c8 1 0.00
0x4055d0 1 0.00
0x4055d8 1 0.00
0x4055e0 1 0.00
0x4055e8 1 0.00
0x4055f0 1 0.00
0x405618 1 0.00
0x405620 1 0.00
0x405660 1 0.00
0x405668 1 0.00
0x405670 2 0.00
0x405678 2 0.00
0x405680 2 0.00
0x405688 2 0.00
0x405690 2 0.00
0x405770 2 0.00
0x405778 2 0.00
0x405780 2 0.00
0x405788 2 0.00
0x405790 2 0.00
0x405820 4 0.01
0x405828 4 0.01
0x405830 4 0.01
0x405840 4 0.01
0x405848 4 0.01
0x405850 4 0.01
0x405858 3 0.01
0x405860 3 0.01
0x405868 3 0.01
0x405870 1 0.00
0x405890 1 0.00
0x405898 1 0.00
0x4058a0 1 0.00
0x4058a8 1 0.00
0x4058b0 1 0.00
sim_num_insn_by_pc.end_dist

ld_text_base             0x00400000 # program text (code) segment base
ld_text_size                  23024 # program text (code) size in bytes
ld_data_base             0x10000000 # program initialized data segment base
ld_data_size                   4096 # program init'ed `.data' and uninit'ed `.bss' size in bytes
ld_stack_base            0x7fffc000 # program stack segment base (highest address in stack)
ld_stack_size                 16384 # program initial stack size
ld_prog_entry            0x00400140 # program entry point (initial PC)
ld_environ_base          0x7fff8000 # program environment base address address
ld_target_big_endian              0 # target executable endian-ness, non-zero if big endian
mem.page_count                   12 # total number of pages allocated
mem.page_mem                    48k # total size of memory pages allocated
mem.ptab_misses                  12 # total first level page table misses
mem.ptab_accesses            347342 # total page table accesses
mem.ptab_miss_rate           0.0000 # first level page table miss rate

+--------------------------------------------------------------+
| effective code range:         [0, fffffff8]                  |
| effective bpred count:        0                              |
| effective sim cycles:         0                              |
| effective bpred misses:       0                              |
| effective icache misses:      0                              |
+--------------------------------------------------------------+

